c Random generated cnf formula, satisfiable: true
p cnf 10 50
7 9 -1 0
1 3 7 0
9 -2 10 0
-1 6 7 0
4 8 7 0
-5 7 -8 0
-8 -4 6 0
-6 10 -9 0
-8 -2 4 0
-9 7 -3 0
4 2 1 0
-1 8 10 0
-1 2 9 0
-8 -2 -9 0
-7 3 10 0
-8 -10 -6 0
7 1 4 0
-9 7 -3 0
-6 10 -4 0
-10 1 9 0
-1 3 9 0
-4 -8 7 0
-5 -9 -8 0
6 -2 8 0
4 9 -2 0
-6 -8 9 0
6 -8 -9 0
-2 4 6 0
6 7 -1 0
7 -4 6 0
-5 8 -2 0
-3 -6 -7 0
4 9 2 0
7 9 -4 0
-6 -5 1 0
3 -9 -6 0
-7 1 -9 0
7 4 2 0
-6 9 -3 0
5 -8 4 0
10 8 -9 0
2 -10 -3 0
-6 -2 4 0
9 5 -4 0
-1 2 9 0
2 -3 -5 0
5 8 -4 0
-1 10 4 0
-9 6 1 0
-5 8 10 0
